(set-logic QF_FP)
(set-option :produce-models true)
(set-info :source |Random FP created by PyMPF|)
(set-info :category random)
(set-info :status sat)
(declare-const x Float32)
(assert (= x ((_ to_fp 8 24) #x80800000)))
(declare-const y Float32)
(assert (= y (fp #b0 #b00100111 #b00111000110111111110010)))
(declare-const z Float32)
(assert (= z ((_ to_fp 8 24) #xDF5B9EFC)))
(declare-const result Float32)
(assert (= result (fp.fma RNE x y z)))
(assert (= result ((_ to_fp 8 24) #xDF5B9EFC)))
(check-sat)
(exit)
